; --proof-with-sharing --index-fresh-sorts --proof-define-skolems --proof-prune --proof-merge --disable-print-success --disable-banner --max-time=30
(set-option :produce-proofs true)
(set-logic AUFLIA)
(declare-sort A 0)
(declare-sort B 0)
(declare-fun nd () B)
(declare-fun iod (B) A)
(declare-fun tcd (A B) Bool)
(assert (= (=> (not (tcd (iod nd) nd)) false) (not (not (tcd (iod nd) nd)))))
(assert (= (not (not (tcd (iod nd) nd))) (tcd (iod nd) nd)))
(assert (not (= (=> (not (tcd (iod nd) nd)) false) (tcd (iod nd) nd))))
(check-sat)